Version identifier: 20.1.0.0 | 2020-11-10 | 9bedb6d68
CPXPARAM_Threads                                 1
CPXPARAM_TimeLimit                               7200
CPXPARAM_MIP_Tolerances_MIPGap                   0
Generic callback                                 0x60
1 of 1 MIP starts provided solutions.
MIP start 'm1' defined initial solution with objective 1335.4621.
Tried aggregator 1 time.
Reduced MIP has 1 rows, 801 columns, and 800 nonzeros.
Reduced MIP has 800 binaries, 0 generals, 0 SOSs, and 0 indicators.
Presolve time = 0.00 sec. (0.24 ticks)
Probing time = 0.00 sec. (0.09 ticks)
Tried aggregator 1 time.
Reduced MIP has 1 rows, 801 columns, and 800 nonzeros.
Reduced MIP has 800 binaries, 0 generals, 0 SOSs, and 0 indicators.
Presolve time = 0.00 sec. (0.25 ticks)
Probing time = 0.00 sec. (0.09 ticks)
MIP emphasis: balance optimality and feasibility.
MIP search method: dynamic search.
Parallel mode: none, using 1 thread.
Root relaxation solution time = 0.00 sec. (0.17 ticks)

        Nodes                                         Cuts/
   Node  Left     Objective  IInf  Best Integer    Best Bound    ItCnt     Gap

*     0+    0                         1335.4621     2716.0000           103.38%
      0     0     1659.9980     2     1335.4621     2716.0000        0  103.38%
      0     0     1623.0764     4     1335.4621 UserPurge2: 1        6   21.54%
      0     0     1506.2644     5     1335.4621 UserPurge2: 1       19   12.79%
      0     0     1487.1601     7     1335.4621 UserPurge2: 1       40   11.36%
      0     0     1479.1743     8     1335.4621 UserPurge2: 1       56   10.76%
      0     0     1459.2868     9     1335.4621 UserPurge2: 1       87    9.27%
      0     0     1448.0862     8     1335.4621 UserPurge2: 1      103    8.43%
      0     0     1444.4056    10     1335.4621 UserPurge2: 1      123    8.16%
      0     0     1428.0585     7     1335.4621 UserPurge2: 1      144    6.93%
      0     0     1424.8000     7     1335.4621 UserPurge2: 1      160    6.69%
      0     0     1418.7843     9     1335.4621 UserPurge2: 1      173    6.24%
      0     0     1413.5410     7     1335.4621 UserPurge2: 1      183    5.85%
      0     0     1412.5552     9     1335.4621 UserPurge1: 1      188    5.77%
      0     0     1410.7677     8     1335.4621 UserPurge2: 1      203    5.64%
      0     0     1410.1128    10     1335.4621 UserPurge2: 1      208    5.59%
      0     0     1407.0403     8     1335.4621 UserPurge2: 1      222    5.36%
      0     0     1405.9009    10     1335.4621 UserPurge2: 1      234    5.27%
*     0+    0                         1336.2428     1405.9009             5.21%
      0     0     1403.2260    10     1336.2428 UserPurge2: 1      253    5.01%
      0     0     1402.3102    11     1336.2428 UserPurge2: 1      265    4.94%
      0     0     1401.1068    11     1336.2428 UserPurge2: 1      278    4.85%
      0     0     1397.8560    11     1336.2428 UserPurge2: 1      306    4.61%
      0     0     1393.0956    11     1336.2428 UserPurge2: 1      331    4.25%
*     0+    0                         1348.0220     1393.0956             3.34%
      0     0     1391.5230    11     1348.0220 UserPurge2: 1      344    3.23%
      0     0     1390.1918    11     1348.0220 UserPurge2: 1      361    3.13%
      0     0     1388.4498    10     1348.0220 UserPurge2: 1      378    3.00%
      0     0     1386.1227     9     1348.0220 UserPurge2: 1      404    2.83%
      0     0     1385.0283    10     1348.0220 UserPurge2: 1      417    2.75%
      0     0     1383.8490    11     1348.0220 UserPurge2: 1      429    2.66%
      0     0     1383.5348    12     1348.0220 UserPurge2: 1      437    2.63%
      0     0     1381.9865    12     1348.0220 UserPurge2: 1      463    2.52%
      0     0     1379.9639    12     1348.0220 UserPurge2: 1      488    2.37%
      0     0     1377.4610    10     1348.0220 UserPurge2: 1      509    2.18%
      0     0     1376.9239    11     1348.0220 UserPurge2: 1      518    2.14%
      0     0     1376.5941    12     1348.0220 UserPurge2: 1      528    2.12%
      0     0     1376.2692    12     1348.0220 UserPurge2: 1      539    2.10%
      0     0     1375.4145    12     1348.0220 UserPurge2: 1      565    2.03%
      0     0     1374.9288    11     1348.0220 UserPurge2: 1      580    2.00%
      0     0     1374.6920    12     1348.0220 UserPurge2: 1      586    1.98%
*     0+    0                         1349.4348     1374.6920             1.87%
      0     0     1374.0067    11     1349.4348 UserPurge2: 1      603    1.82%
      0     0     1373.2026    10     1349.4348 UserPurge2: 1      613    1.76%
      0     0     1372.6797    11     1349.4348 UserPurge2: 1      619    1.72%
      0     0     1372.0334    12     1349.4348 UserPurge2: 1      626    1.67%
      0     0     1371.9223    13     1349.4348 UserPurge2: 1      630    1.67%
      0     0     1371.2154    13     1349.4348 UserPurge2: 1      644    1.61%
      0     0     1370.9421    13     1349.4348 UserPurge2: 1      659    1.59%
      0     0     1370.5965    14     1349.4348 UserPurge2: 1      666    1.57%
      0     0     1370.3212    14     1349.4348 UserPurge2: 1      677    1.55%
      0     0     1370.0989    14     1349.4348 UserPurge2: 1      690    1.53%
      0     0     1369.9960    15     1349.4348 UserPurge2: 1      703    1.52%
      0     0     1369.6546    14     1349.4348 UserPurge2: 1      725    1.50%
      0     0     1369.4496    15     1349.4348 UserPurge2: 1      733    1.48%
      0     0     1369.2432    14     1349.4348 UserPurge2: 1      749    1.47%
      0     0     1368.9980    13     1349.4348 UserPurge2: 1      756    1.45%
      0     0     1368.8776    14     1349.4348 UserPurge2: 1      770    1.44%
*     0+    0                         1353.7807     1368.8776             1.12%

Repeating presolve.
Tried aggregator 1 time.
MIP Presolve eliminated 0 rows and 210 columns.
Reduced MIP has 1 rows, 591 columns, and 590 nonzeros.
Reduced MIP has 590 binaries, 0 generals, 0 SOSs, and 0 indicators.
Presolve time = 0.00 sec. (0.22 ticks)
Probing time = 0.00 sec. (0.06 ticks)
Tried aggregator 1 time.
Reduced MIP has 1 rows, 591 columns, and 590 nonzeros.
Reduced MIP has 590 binaries, 0 generals, 0 SOSs, and 0 indicators.
Presolve time = 0.00 sec. (0.18 ticks)
Represolve time = 0.03 sec. (14.24 ticks)
Probing time = 0.00 sec. (0.06 ticks)
MIP emphasis: balance optimality and feasibility.
MIP search method: dynamic search.
Parallel mode: none, using 1 thread.
Root relaxation solution time = 0.00 sec. (3.78 ticks)

        Nodes                                         Cuts/
   Node  Left     Objective  IInf  Best Integer    Best Bound    ItCnt     Gap

*     0+    0                         1353.7807     1368.8776             1.12%
      0     0     1368.8776    14     1353.7807     1368.8776      819    1.12%
      0     0     1368.7388    15     1353.7807 UserPurge2: 1      831    1.10%
      0     0     1368.5991    16     1353.7807 UserPurge2: 1      847    1.09%
*     0+    0                         1356.2669     1368.5991             0.91%
      0     0     1368.5210    17     1356.2669 UserPurge2: 1      855    0.90%
      0     2     1368.5210    17     1356.2669     1368.5170      855    0.90%
Elapsed time = 21.19 sec. (226.66 ticks, tree = 0.01 MB, solutions = 6)
*     1     1      integral     0     1358.0000     1368.5170     5275    0.77%
      2     0        cutoff           1358.0000     1358.0000     5659    0.00%

User cuts applied:  786

Root node processing (before b&c):
  Real time             =   21.19 sec. (228.01 ticks)
Sequential b&c:
  Real time             =   23.18 sec. (2606.67 ticks)
                          ------------
Total (root+branch&cut) =   44.37 sec. (2834.68 ticks)
@Parameters: 
is_S_cut                                true
is_add_all_yinF                         true
is_start_value                          true
is_usercut                              true
is_visualization                        false
uc_only_rootnode                        false

data                                    Qi
fn                                      data/Qi/instance_500_800.csv
mode                                    NewSubmodular
solver                                  cplex

p                                       5
r                                       5

EPS                                     1.0e-06
EPS_vio                                 1.0e-04
beta                                    0.10
gap                                     0.00
nodelimit                               Inf
timelimit                               7200.00


@PrintInfos
ItCnt: 5659
Current gap: 0.00 %
Termination Status: OPTIMAL
Primal Status: FEASIBLE_POINT
Solve Time: 44.37 sec
Objective Value: 1358.000000
Number of Nodes:      3

CutInfo: [phase] num / time (sec) 
ZLP             [phase1]     0 / 0.00 [rLC]     0 / 0.00 [rUC]     0 / 0.00 [sLC]     0 / 0.00 [sUC]     0 / 0.00 
OldSubmodular   [phase1]     0 / 0.00 [rLC]     0 / 0.00 [rUC]     0 / 0.00 [sLC]     0 / 0.00 [sUC]     0 / 0.00 
NewSubmodular   [phase1]     0 / 0.00 [rLC]    85 / 14.70 [rUC]   158 / 4.23 [sLC]     0 / 1.21 [sUC]   765 / 19.77 
PMP             [phase1]     0 / 0.00 [rLC]    10 / 11.87 [rUC]     0 / 0.00 [sLC]     1 / 1.21 [sUC]     0 / 0.00 
Separation Round: [phase1] 0  [rLC] 48  [rUC] 58  [sLC] 1  [sUC] 237
Root Best Bound 1358.000000
Root Best Integer: 1358.000000
Best Bound: 1358.000000
Best Integer: 1358.000000

